# Solution for model r3_t9_m6_8
# Finished Task: 9 / 9
# Makespan: 525.0, Total Distance: 411.0, Total Time: 0.0560
# R O S F
0 0 3 0.0 0.0
1 1 4 0.0 0.0
2 2 9 0.0 0.0
3 0 10 151.0 190.0
4 1 7 190.0 229.0
5 2 -1 416.0 449.0
6 1 -1 502.0 525.0
7 1 8 264.0 295.0
8 1 6 383.0 416.0
9 2 5 295.0 328.0
10 0 11 229.0 264.0
11 0 -1 466.0 502.0
